(set-info :smt-lib-version 2.6)
(set-logic QF_NIA)
(set-info :source |
Generated by: Cristina Borralleras, Daniel Larraz, Albert Oliveras, Enric Rodriguez-Carbonell, Albert Rubio
Generated on: 2017-04-27
Generator: VeryMax
Application: Termination proving
Target solver: barcelogic
|)
(set-info :license "https://creativecommons.org/licenses/by/4.0/")
(set-info :category "industrial")
(set-info :status unknown)
(declare-fun Nl2arg11 () Int)
(declare-fun Nl2arg21 () Int)
(declare-fun lam0n0 () Int)
(declare-fun lam0n1 () Int)
(declare-fun lam0n2 () Int)
(declare-fun lam0n3 () Int)
(declare-fun lam0n4 () Int)
(declare-fun lam0n5 () Int)
(declare-fun lam0n6 () Int)
(declare-fun lam0n7 () Int)
(declare-fun lam0n8 () Int)
(declare-fun lam0n9 () Int)
(declare-fun UndefCntr0_CT () Int)
(declare-fun Nl2CT1 () Int)
(declare-fun UndefCntr0_arg1 () Int)
(declare-fun UndefCntr0_arg2 () Int)
(declare-fun UndefCntr0_undef5 () Int)
(declare-fun UndefCntr0_undef6 () Int)
(declare-fun lam1n0 () Int)
(declare-fun lam1n1 () Int)
(declare-fun lam1n2 () Int)
(declare-fun lam1n3 () Int)
(declare-fun lam1n4 () Int)
(declare-fun lam1n5 () Int)
(declare-fun lam1n6 () Int)
(declare-fun lam1n7 () Int)
(declare-fun lam1n8 () Int)
(declare-fun lam1n9 () Int)
(declare-fun lam2n0 () Int)
(declare-fun lam2n1 () Int)
(declare-fun lam2n2 () Int)
(declare-fun lam2n3 () Int)
(declare-fun lam2n4 () Int)
(declare-fun lam2n5 () Int)
(declare-fun lam2n6 () Int)
(declare-fun lam2n7 () Int)
(declare-fun lam2n8 () Int)
(declare-fun lam2n9 () Int)
(declare-fun UndefCntr1_CT () Int)
(declare-fun UndefCntr1_arg1 () Int)
(declare-fun UndefCntr1_arg2 () Int)
(declare-fun UndefCntr1_undef7 () Int)
(declare-fun UndefCntr1_undef8 () Int)
(declare-fun UndefCntr1_undef9 () Int)
(declare-fun UndefCntr1_undef10 () Int)
(declare-fun lam3n0 () Int)
(declare-fun lam3n1 () Int)
(declare-fun lam3n2 () Int)
(declare-fun lam3n3 () Int)
(declare-fun lam3n4 () Int)
(declare-fun lam3n5 () Int)
(declare-fun lam3n6 () Int)
(declare-fun lam3n7 () Int)
(declare-fun lam3n8 () Int)
(declare-fun lam3n9 () Int)
(declare-fun lam4n0 () Int)
(declare-fun lam4n1 () Int)
(declare-fun lam4n2 () Int)
(declare-fun lam4n3 () Int)
(declare-fun undef3 () Int)
(declare-fun undef21 () Int)
(declare-fun undef4 () Int)
(declare-fun FV_arg1_2 () Int)
(declare-fun FV_arg2_2 () Int)
(declare-fun lam5n0 () Int)
(declare-fun lam5n1 () Int)
(declare-fun lam5n2 () Int)
(declare-fun lam6n0 () Int)
(declare-fun lam6n1 () Int)
(declare-fun lam6n2 () Int)
(declare-fun UndefDef0undef6_CT () Int)
(declare-fun UndefDef0undef6_arg1 () Int)
(declare-fun UndefDef0undef6_arg2 () Int)
(declare-fun lam7n0 () Int)
(declare-fun lam7n1 () Int)
(declare-fun lam7n2 () Int)
(declare-fun UndefDef0undef5_CT () Int)
(declare-fun UndefDef0undef5_arg1 () Int)
(declare-fun UndefDef0undef5_arg2 () Int)
(declare-fun lam8n0 () Int)
(declare-fun lam8n1 () Int)
(declare-fun lam8n2 () Int)
(declare-fun lam9n0 () Int)
(declare-fun lam9n1 () Int)
(declare-fun lam9n2 () Int)
(declare-fun lam10n0 () Int)
(declare-fun lam10n1 () Int)
(declare-fun lam10n2 () Int)
(declare-fun lam11n0 () Int)
(declare-fun lam11n1 () Int)
(declare-fun lam11n2 () Int)
(declare-fun lam12n0 () Int)
(declare-fun lam12n1 () Int)
(declare-fun lam12n2 () Int)
(declare-fun lam13n0 () Int)
(declare-fun lam13n1 () Int)
(declare-fun lam13n2 () Int)
(declare-fun lam13n3 () Int)
(declare-fun lam13n4 () Int)
(declare-fun lam13n5 () Int)
(declare-fun lam14n0 () Int)
(declare-fun lam14n1 () Int)
(declare-fun lam14n2 () Int)
(declare-fun lam14n3 () Int)
(declare-fun lam14n4 () Int)
(declare-fun lam14n5 () Int)
(declare-fun UndefDef1undef7_CT () Int)
(declare-fun UndefDef1undef7_arg1 () Int)
(declare-fun UndefDef1undef7_arg2 () Int)
(declare-fun lam15n0 () Int)
(declare-fun lam15n1 () Int)
(declare-fun lam15n2 () Int)
(declare-fun lam15n3 () Int)
(declare-fun lam15n4 () Int)
(declare-fun lam15n5 () Int)
(declare-fun lam16n0 () Int)
(declare-fun lam16n1 () Int)
(declare-fun lam16n2 () Int)
(declare-fun lam16n3 () Int)
(declare-fun lam16n4 () Int)
(declare-fun lam16n5 () Int)
(declare-fun lam17n0 () Int)
(declare-fun lam17n1 () Int)
(declare-fun lam17n2 () Int)
(declare-fun lam17n3 () Int)
(declare-fun lam17n4 () Int)
(declare-fun lam17n5 () Int)
(declare-fun FV_undef8_1 () Int)
(declare-fun FV_undef9_1 () Int)
(declare-fun FV_undef10_1 () Int)
(declare-fun FV_arg1_1 () Int)
(declare-fun FV_arg2_1 () Int)
(declare-fun FV_undef7_1 () Int)
(declare-fun lam18n0 () Int)
(declare-fun lam18n1 () Int)
(declare-fun lam18n2 () Int)
(declare-fun FV_arg1_3 () Int)
(declare-fun FV_arg2_3 () Int)
(declare-fun FV_undef6_3 () Int)
(declare-fun FV_undef5_3 () Int)
(declare-fun FV_undef7_3 () Int)
(declare-fun FV_undef9_3 () Int)
(declare-fun FV_undef10_3 () Int)
(declare-fun FV_undef8_3 () Int)
(assert ( and ( <= ( - 1 ) Nl2arg11 ) ( <= Nl2arg11 1 ) ( <= ( - 1 ) Nl2arg21 ) ( <= Nl2arg21 1 ) ))
(assert ( or ( and ( >= lam0n0 0 ) ( >= lam0n1 0 ) ( >= lam0n2 0 ) ( >= lam0n3 0 ) ( >= lam0n4 0 ) ( >= lam0n5 0 ) ( >= lam0n6 0 ) ( >= lam0n7 0 ) ( >= lam0n8 0 ) ( >= lam0n9 0 ) ( > ( + ( * 1 lam0n0 ) ( * 1 lam0n1 ) ( * 1 lam0n2 ) ( * 1 lam0n3 ) ( * 2 lam0n6 ) ( * 3 lam0n7 ) ( * UndefCntr0_CT lam0n8 ) ( * Nl2CT1 lam0n9 ) ( - 1 ) ) 0 ) ( = ( + ( * ( - 1 ) lam0n0 ) ( * ( - 1 ) lam0n1 ) ( * ( - 1 ) lam0n4 ) ( * UndefCntr0_arg1 lam0n8 ) ( * Nl2arg11 lam0n9 ) ) 0 ) ( = ( + ( * ( - 1 ) lam0n2 ) ( * ( - 1 ) lam0n6 ) ( * ( - 1 ) lam0n7 ) ( * UndefCntr0_arg2 lam0n8 ) ( * Nl2arg21 lam0n9 ) ) 0 ) ( = ( + ( * 1 lam0n2 ) ( * ( - 1 ) lam0n3 ) ( * 1 lam0n4 ) ( * UndefCntr0_undef5 lam0n8 ) ) 0 ) ( = ( + ( * 1 lam0n1 ) ( * ( - 1 ) lam0n5 ) ( * 1 lam0n6 ) ( * UndefCntr0_undef6 lam0n8 ) ) 0 ) ) ( and ( >= lam1n0 0 ) ( >= lam1n1 0 ) ( >= lam1n2 0 ) ( >= lam1n3 0 ) ( >= lam1n4 0 ) ( >= lam1n5 0 ) ( >= lam1n6 0 ) ( >= lam1n7 0 ) ( >= lam1n8 0 ) ( >= lam1n9 0 ) ( > ( + ( * 1 lam1n0 ) ( * 1 lam1n1 ) ( * 1 lam1n2 ) ( * 1 lam1n3 ) ( * 2 lam1n6 ) ( * 3 lam1n7 ) ( * UndefCntr0_CT lam1n8 ) ( * Nl2CT1 lam1n9 ) ( - 1 ( + ( + Nl2CT1 ( * Nl2arg11 0 ) ) ( * Nl2arg21 0 ) ) ) ) 0 ) ( = ( + ( * ( - 1 ) lam1n0 ) ( * ( - 1 ) lam1n1 ) ( * ( - 1 ) lam1n4 ) ( * UndefCntr0_arg1 lam1n8 ) ( * Nl2arg11 lam1n9 ) ) 0 ) ( = ( + ( * ( - 1 ) lam1n2 ) ( * ( - 1 ) lam1n6 ) ( * ( - 1 ) lam1n7 ) ( * UndefCntr0_arg2 lam1n8 ) ( * Nl2arg21 lam1n9 ) ) 0 ) ( = ( + ( * 1 lam1n2 ) ( * ( - 1 ) lam1n3 ) ( * 1 lam1n4 ) ( * UndefCntr0_undef5 lam1n8 ) ( - ( + 0 ( * Nl2arg11 1 ) ) ) ) 0 ) ( = ( + ( * 1 lam1n1 ) ( * ( - 1 ) lam1n5 ) ( * 1 lam1n6 ) ( * UndefCntr0_undef6 lam1n8 ) ( - ( + 0 ( * Nl2arg21 1 ) ) ) ) 0 ) ) ))
(assert ( or ( and ( >= lam2n0 0 ) ( >= lam2n1 0 ) ( >= lam2n2 0 ) ( >= lam2n3 0 ) ( >= lam2n4 0 ) ( >= lam2n5 0 ) ( >= lam2n6 0 ) ( >= lam2n7 0 ) ( >= lam2n8 0 ) ( >= lam2n9 0 ) ( > ( + ( * 1 lam2n0 ) ( * 1 lam2n1 ) ( * 1 lam2n2 ) ( * 1 lam2n3 ) ( * 2 lam2n6 ) ( * 3 lam2n7 ) ( * UndefCntr1_CT lam2n8 ) ( * Nl2CT1 lam2n9 ) ( - 1 ) ) 0 ) ( = ( + ( * ( - 1 ) lam2n0 ) ( * ( - 1 ) lam2n4 ) ( * UndefCntr1_arg1 lam2n8 ) ( * Nl2arg11 lam2n9 ) ) 0 ) ( = ( + ( * ( - 1 ) lam2n6 ) ( * ( - 1 ) lam2n7 ) ( * UndefCntr1_arg2 lam2n8 ) ( * Nl2arg21 lam2n9 ) ) 0 ) ( = ( + ( * ( - 1 ) lam2n1 ) ( * 1 lam2n4 ) ( * 1 lam2n6 ) ( * UndefCntr1_undef7 lam2n8 ) ) 0 ) ( = ( + ( * ( - 1 ) lam2n5 ) ( * UndefCntr1_undef8 lam2n8 ) ) 0 ) ( = ( + ( * ( - 1 ) lam2n2 ) ( * UndefCntr1_undef9 lam2n8 ) ) 0 ) ( = ( + ( * ( - 1 ) lam2n3 ) ( * UndefCntr1_undef10 lam2n8 ) ) 0 ) ) ( and ( >= lam3n0 0 ) ( >= lam3n1 0 ) ( >= lam3n2 0 ) ( >= lam3n3 0 ) ( >= lam3n4 0 ) ( >= lam3n5 0 ) ( >= lam3n6 0 ) ( >= lam3n7 0 ) ( >= lam3n8 0 ) ( >= lam3n9 0 ) ( > ( + ( * 1 lam3n0 ) ( * 1 lam3n1 ) ( * 1 lam3n2 ) ( * 1 lam3n3 ) ( * 2 lam3n6 ) ( * 3 lam3n7 ) ( * UndefCntr1_CT lam3n8 ) ( * Nl2CT1 lam3n9 ) ( - 1 ( + ( + Nl2CT1 ( * Nl2arg11 0 ) ) ( * Nl2arg21 0 ) ) ) ) 0 ) ( = ( + ( * ( - 1 ) lam3n0 ) ( * ( - 1 ) lam3n4 ) ( * UndefCntr1_arg1 lam3n8 ) ( * Nl2arg11 lam3n9 ) ) 0 ) ( = ( + ( * ( - 1 ) lam3n6 ) ( * ( - 1 ) lam3n7 ) ( * UndefCntr1_arg2 lam3n8 ) ( * Nl2arg21 lam3n9 ) ) 0 ) ( = ( + ( * ( - 1 ) lam3n1 ) ( * 1 lam3n4 ) ( * 1 lam3n6 ) ( * UndefCntr1_undef7 lam3n8 ) ( - ( + 0 ( * Nl2arg11 1 ) ) ) ) 0 ) ( = ( + ( * ( - 1 ) lam3n5 ) ( * UndefCntr1_undef8 lam3n8 ) ( - ( + 0 ( * Nl2arg21 1 ) ) ) ) 0 ) ( = ( + ( * ( - 1 ) lam3n2 ) ( * UndefCntr1_undef9 lam3n8 ) ) 0 ) ( = ( + ( * ( - 1 ) lam3n3 ) ( * UndefCntr1_undef10 lam3n8 ) ) 0 ) ) ))
(assert ( and ( <= ( + Nl2CT1 ( * Nl2arg11 FV_arg1_2 ) ( * Nl2arg21 FV_arg2_2 ) ) 0 ) ( <= ( + 1 ( * ( - 1 ) FV_arg1_2 ) ) 0 ) ))
(assert ( or ( not ( = UndefCntr0_arg1 0 ) ) ( not ( = UndefCntr0_arg2 0 ) ) ( not ( = UndefCntr0_undef5 0 ) ) ( not ( = UndefCntr0_undef6 0 ) ) ( = UndefCntr0_CT 0 ) ))
(assert ( or ( and ( = UndefCntr0_arg1 0 ) ( = UndefCntr0_arg2 0 ) ) ( or ( not ( = UndefCntr0_undef5 0 ) ) ( not ( = UndefCntr0_undef6 0 ) ) ) ))
(assert ( or ( not ( = UndefCntr1_arg1 0 ) ) ( not ( = UndefCntr1_arg2 0 ) ) ( not ( = UndefCntr1_undef7 0 ) ) ( not ( = UndefCntr1_undef8 0 ) ) ( not ( = UndefCntr1_undef9 0 ) ) ( not ( = UndefCntr1_undef10 0 ) ) ( = UndefCntr1_CT 0 ) ))
(assert ( or ( and ( = UndefCntr1_arg1 0 ) ( = UndefCntr1_arg2 0 ) ) ( or ( not ( = UndefCntr1_undef7 0 ) ) ( not ( = UndefCntr1_undef8 0 ) ) ( not ( = UndefCntr1_undef9 0 ) ) ( not ( = UndefCntr1_undef10 0 ) ) ) ))
(assert ( or ( and ( >= lam5n0 0 ) ( >= lam5n1 0 ) ( >= lam5n2 0 ) ( > ( + ( * 1 lam5n0 ) ( * 3 lam5n1 ) ( * Nl2CT1 lam5n2 ) ( - 1 ) ) 0 ) ( = ( + ( * ( - 1 ) lam5n0 ) ( * Nl2arg11 lam5n2 ) ) 0 ) ( = ( + ( * ( - 1 ) lam5n1 ) ( * Nl2arg21 lam5n2 ) ) 0 ) ) ( and ( and ( >= lam6n0 0 ) ( >= lam6n1 0 ) ( >= lam6n2 0 ) ( > ( + ( * 1 lam6n0 ) ( * 3 lam6n1 ) ( * Nl2CT1 lam6n2 ) ( - 1 ( + ( + 1 0 ) ( * 1 UndefDef0undef6_CT ) ) ) ) 0 ) ( = ( + ( * ( - 1 ) lam6n0 ) ( * Nl2arg11 lam6n2 ) ( - ( + ( - 1 ) ( * UndefDef0undef6_arg1 1 ) ) ) ) 0 ) ( = ( + ( * ( - 1 ) lam6n1 ) ( * Nl2arg21 lam6n2 ) ( - ( * UndefDef0undef6_arg2 1 ) ) ) 0 ) ) ( and ( >= lam7n0 0 ) ( >= lam7n1 0 ) ( >= lam7n2 0 ) ( > ( + ( * 1 lam7n0 ) ( * 3 lam7n1 ) ( * Nl2CT1 lam7n2 ) ( - 1 ( + ( + 1 0 ) ( * 1 UndefDef0undef5_CT ) ) ) ) 0 ) ( = ( + ( * ( - 1 ) lam7n0 ) ( * Nl2arg11 lam7n2 ) ( - ( * UndefDef0undef5_arg1 1 ) ) ) 0 ) ( = ( + ( * ( - 1 ) lam7n1 ) ( * Nl2arg21 lam7n2 ) ( - ( + ( - 1 ) ( * UndefDef0undef5_arg2 1 ) ) ) ) 0 ) ) ( and ( >= lam8n0 0 ) ( >= lam8n1 0 ) ( >= lam8n2 0 ) ( > ( + ( * 1 lam8n0 ) ( * 3 lam8n1 ) ( * Nl2CT1 lam8n2 ) ( - 1 ( + 1 ( * ( - 1 ) UndefDef0undef5_CT ) ) ) ) 0 ) ( = ( + ( * ( - 1 ) lam8n0 ) ( * Nl2arg11 lam8n2 ) ( - ( * UndefDef0undef5_arg1 ( - 1 ) ) ) ) 0 ) ( = ( + ( * ( - 1 ) lam8n1 ) ( * Nl2arg21 lam8n2 ) ( - ( * UndefDef0undef5_arg2 ( - 1 ) ) ) ) 0 ) ) ( and ( >= lam9n0 0 ) ( >= lam9n1 0 ) ( >= lam9n2 0 ) ( > ( + ( * 1 lam9n0 ) ( * 3 lam9n1 ) ( * Nl2CT1 lam9n2 ) ( - 1 ( + ( + 0 0 ) ( * 1 UndefDef0undef5_CT ) ) ) ) 0 ) ( = ( + ( * ( - 1 ) lam9n0 ) ( * Nl2arg11 lam9n2 ) ( - ( + ( - 1 ) ( * UndefDef0undef5_arg1 1 ) ) ) ) 0 ) ( = ( + ( * ( - 1 ) lam9n1 ) ( * Nl2arg21 lam9n2 ) ( - ( * UndefDef0undef5_arg2 1 ) ) ) 0 ) ) ( and ( >= lam10n0 0 ) ( >= lam10n1 0 ) ( >= lam10n2 0 ) ( > ( + ( * 1 lam10n0 ) ( * 3 lam10n1 ) ( * Nl2CT1 lam10n2 ) ( - 1 ( + 0 ( * ( - 1 ) UndefDef0undef6_CT ) ) ) ) 0 ) ( = ( + ( * ( - 1 ) lam10n0 ) ( * Nl2arg11 lam10n2 ) ( - ( * UndefDef0undef6_arg1 ( - 1 ) ) ) ) 0 ) ( = ( + ( * ( - 1 ) lam10n1 ) ( * Nl2arg21 lam10n2 ) ( - ( * UndefDef0undef6_arg2 ( - 1 ) ) ) ) 0 ) ) ( and ( >= lam11n0 0 ) ( >= lam11n1 0 ) ( >= lam11n2 0 ) ( > ( + ( * 1 lam11n0 ) ( * 3 lam11n1 ) ( * Nl2CT1 lam11n2 ) ( - 1 ( + ( + 2 0 ) ( * 1 UndefDef0undef6_CT ) ) ) ) 0 ) ( = ( + ( * ( - 1 ) lam11n0 ) ( * Nl2arg11 lam11n2 ) ( - ( * UndefDef0undef6_arg1 1 ) ) ) 0 ) ( = ( + ( * ( - 1 ) lam11n1 ) ( * Nl2arg21 lam11n2 ) ( - ( + ( - 1 ) ( * UndefDef0undef6_arg2 1 ) ) ) ) 0 ) ) ( or ( and ( = UndefCntr0_undef5 0 ) ( = UndefCntr0_undef6 0 ) ) ( and ( >= lam12n0 0 ) ( >= lam12n1 0 ) ( >= lam12n2 0 ) ( > ( + ( * 1 lam12n0 ) ( * 3 lam12n1 ) ( * Nl2CT1 lam12n2 ) ( - 1 ( + ( + ( + ( + UndefCntr0_CT 0 ) 0 ) ( * UndefCntr0_undef5 UndefDef0undef5_CT ) ) ( * UndefCntr0_undef6 UndefDef0undef6_CT ) ) ) ) 0 ) ( = ( + ( * ( - 1 ) lam12n0 ) ( * Nl2arg11 lam12n2 ) ( - ( + ( + UndefCntr0_arg1 ( * UndefDef0undef5_arg1 UndefCntr0_undef5 ) ) ( * UndefDef0undef6_arg1 UndefCntr0_undef6 ) ) ) ) 0 ) ( = ( + ( * ( - 1 ) lam12n1 ) ( * Nl2arg21 lam12n2 ) ( - ( + ( + UndefCntr0_arg2 ( * UndefDef0undef5_arg2 UndefCntr0_undef5 ) ) ( * UndefDef0undef6_arg2 UndefCntr0_undef6 ) ) ) ) 0 ) ) ) ) ))
(assert ( or ( and ( >= lam13n0 0 ) ( >= lam13n1 0 ) ( >= lam13n2 0 ) ( >= lam13n3 0 ) ( >= lam13n4 0 ) ( >= lam13n5 0 ) ( > ( + ( * 1 lam13n0 ) ( * 1 lam13n1 ) ( * 1 lam13n2 ) ( * 3 lam13n4 ) ( * Nl2CT1 lam13n5 ) ( - 1 ) ) 0 ) ( = ( + ( * ( - 1 ) lam13n0 ) ( * Nl2arg11 lam13n5 ) ) 0 ) ( = ( + ( * ( - 1 ) lam13n4 ) ( * Nl2arg21 lam13n5 ) ) 0 ) ( = ( * ( - 1 ) lam13n3 ) 0 ) ( = ( * ( - 1 ) lam13n1 ) 0 ) ( = ( * ( - 1 ) lam13n2 ) 0 ) ) ( and ( and ( >= lam14n0 0 ) ( >= lam14n1 0 ) ( >= lam14n2 0 ) ( >= lam14n3 0 ) ( >= lam14n4 0 ) ( >= lam14n5 0 ) ( > ( + ( * 1 lam14n0 ) ( * 1 lam14n1 ) ( * 1 lam14n2 ) ( * 3 lam14n4 ) ( * Nl2CT1 lam14n5 ) ( - 1 ( + 1 ( * ( - 1 ) UndefDef1undef7_CT ) ) ) ) 0 ) ( = ( + ( * ( - 1 ) lam14n0 ) ( * Nl2arg11 lam14n5 ) ( - ( * UndefDef1undef7_arg1 ( - 1 ) ) ) ) 0 ) ( = ( + ( * ( - 1 ) lam14n4 ) ( * Nl2arg21 lam14n5 ) ( - ( * UndefDef1undef7_arg2 ( - 1 ) ) ) ) 0 ) ( = ( * ( - 1 ) lam14n3 ) 0 ) ( = ( * ( - 1 ) lam14n1 ) 0 ) ( = ( * ( - 1 ) lam14n2 ) 0 ) ) ( and ( >= lam15n0 0 ) ( >= lam15n1 0 ) ( >= lam15n2 0 ) ( >= lam15n3 0 ) ( >= lam15n4 0 ) ( >= lam15n5 0 ) ( > ( + ( * 1 lam15n0 ) ( * 1 lam15n1 ) ( * 1 lam15n2 ) ( * 3 lam15n4 ) ( * Nl2CT1 lam15n5 ) ( - 1 ( + ( + 0 0 ) ( * 1 UndefDef1undef7_CT ) ) ) ) 0 ) ( = ( + ( * ( - 1 ) lam15n0 ) ( * Nl2arg11 lam15n5 ) ( - ( + ( - 1 ) ( * UndefDef1undef7_arg1 1 ) ) ) ) 0 ) ( = ( + ( * ( - 1 ) lam15n4 ) ( * Nl2arg21 lam15n5 ) ( - ( * UndefDef1undef7_arg2 1 ) ) ) 0 ) ( = ( * ( - 1 ) lam15n3 ) 0 ) ( = ( * ( - 1 ) lam15n1 ) 0 ) ( = ( * ( - 1 ) lam15n2 ) 0 ) ) ( and ( >= lam16n0 0 ) ( >= lam16n1 0 ) ( >= lam16n2 0 ) ( >= lam16n3 0 ) ( >= lam16n4 0 ) ( >= lam16n5 0 ) ( > ( + ( * 1 lam16n0 ) ( * 1 lam16n1 ) ( * 1 lam16n2 ) ( * 3 lam16n4 ) ( * Nl2CT1 lam16n5 ) ( - 1 ( + ( + 2 0 ) ( * 1 UndefDef1undef7_CT ) ) ) ) 0 ) ( = ( + ( * ( - 1 ) lam16n0 ) ( * Nl2arg11 lam16n5 ) ( - ( * UndefDef1undef7_arg1 1 ) ) ) 0 ) ( = ( + ( * ( - 1 ) lam16n4 ) ( * Nl2arg21 lam16n5 ) ( - ( + ( - 1 ) ( * UndefDef1undef7_arg2 1 ) ) ) ) 0 ) ( = ( * ( - 1 ) lam16n3 ) 0 ) ( = ( * ( - 1 ) lam16n1 ) 0 ) ( = ( * ( - 1 ) lam16n2 ) 0 ) ) ( or ( = UndefCntr1_undef7 0 ) ( and ( >= lam17n0 0 ) ( >= lam17n1 0 ) ( >= lam17n2 0 ) ( >= lam17n3 0 ) ( >= lam17n4 0 ) ( >= lam17n5 0 ) ( > ( + ( * 1 lam17n0 ) ( * 1 lam17n1 ) ( * 1 lam17n2 ) ( * 3 lam17n4 ) ( * Nl2CT1 lam17n5 ) ( - 1 ( + ( + ( + ( + ( + ( + UndefCntr1_CT 0 ) 0 ) ( * UndefCntr1_undef7 UndefDef1undef7_CT ) ) 0 ) 0 ) 0 ) ) ) 0 ) ( = ( + ( * ( - 1 ) lam17n0 ) ( * Nl2arg11 lam17n5 ) ( - ( + UndefCntr1_arg1 ( * UndefDef1undef7_arg1 UndefCntr1_undef7 ) ) ) ) 0 ) ( = ( + ( * ( - 1 ) lam17n4 ) ( * Nl2arg21 lam17n5 ) ( - ( + UndefCntr1_arg2 ( * UndefDef1undef7_arg2 UndefCntr1_undef7 ) ) ) ) 0 ) ( = ( + ( * ( - 1 ) lam17n3 ) ( - UndefCntr1_undef8 ) ) 0 ) ( = ( + ( * ( - 1 ) lam17n1 ) ( - UndefCntr1_undef9 ) ) 0 ) ( = ( + ( * ( - 1 ) lam17n2 ) ( - UndefCntr1_undef10 ) ) 0 ) ) ) ) ))
(assert ( or ( = UndefCntr1_undef8 0 ) ( and ( and ( = UndefCntr1_arg1 0 ) ( = UndefCntr1_arg2 0 ) ( = UndefCntr1_undef7 0 ) ( = UndefCntr1_undef9 0 ) ( = UndefCntr1_undef10 0 ) ) ( or ( and ( <= ( * ( - 1 ) FV_undef8_1 ) 0 ) ( <= ( + UndefCntr1_CT ( * UndefCntr1_undef9 FV_undef9_1 ) ( * UndefCntr1_undef10 FV_undef10_1 ) ( * UndefCntr1_undef8 FV_undef8_1 ) ( * UndefCntr1_arg1 FV_arg1_1 ) ( * UndefCntr1_arg2 FV_arg2_1 ) ( * UndefCntr1_undef7 FV_undef7_1 ) ) 0 ) ) ( and ( <= ( * ( - 1 ) FV_undef8_1 ) 0 ) ( <= ( + UndefCntr1_CT ( * UndefCntr1_undef9 FV_undef9_1 ) ( * UndefCntr1_undef10 FV_undef10_1 ) ( * UndefCntr1_undef8 FV_undef8_1 ) ( * UndefCntr1_arg1 FV_arg1_1 ) ( * UndefCntr1_arg2 FV_arg2_1 ) ( * UndefCntr1_undef7 FV_undef7_1 ) ) 0 ) ) ) ) ))
(assert ( or ( = UndefCntr1_undef9 0 ) ( and ( and ( = UndefCntr1_arg1 0 ) ( = UndefCntr1_arg2 0 ) ( = UndefCntr1_undef7 0 ) ( = UndefCntr1_undef8 0 ) ( = UndefCntr1_undef10 0 ) ) ( or ( and ( <= ( + 1 ( * ( - 1 ) FV_undef9_1 ) ) 0 ) ( <= ( + UndefCntr1_CT ( * UndefCntr1_undef9 FV_undef9_1 ) ( * UndefCntr1_undef10 FV_undef10_1 ) ( * UndefCntr1_undef8 FV_undef8_1 ) ( * UndefCntr1_arg1 FV_arg1_1 ) ( * UndefCntr1_arg2 FV_arg2_1 ) ( * UndefCntr1_undef7 FV_undef7_1 ) ) 0 ) ) ( and ( <= ( + 1 ( * ( - 1 ) FV_undef9_1 ) ) 0 ) ( <= ( + UndefCntr1_CT ( * UndefCntr1_undef9 FV_undef9_1 ) ( * UndefCntr1_undef10 FV_undef10_1 ) ( * UndefCntr1_undef8 FV_undef8_1 ) ( * UndefCntr1_arg1 FV_arg1_1 ) ( * UndefCntr1_arg2 FV_arg2_1 ) ( * UndefCntr1_undef7 FV_undef7_1 ) ) 0 ) ) ) ) ))
(assert ( or ( = UndefCntr1_undef10 0 ) ( and ( and ( = UndefCntr1_arg1 0 ) ( = UndefCntr1_arg2 0 ) ( = UndefCntr1_undef7 0 ) ( = UndefCntr1_undef8 0 ) ( = UndefCntr1_undef9 0 ) ) ( or ( and ( <= ( + 1 ( * ( - 1 ) FV_undef10_1 ) ) 0 ) ( <= ( + UndefCntr1_CT ( * UndefCntr1_undef9 FV_undef9_1 ) ( * UndefCntr1_undef10 FV_undef10_1 ) ( * UndefCntr1_undef8 FV_undef8_1 ) ( * UndefCntr1_arg1 FV_arg1_1 ) ( * UndefCntr1_arg2 FV_arg2_1 ) ( * UndefCntr1_undef7 FV_undef7_1 ) ) 0 ) ) ( and ( <= ( + 1 ( * ( - 1 ) FV_undef10_1 ) ) 0 ) ( <= ( + UndefCntr1_CT ( * UndefCntr1_undef9 FV_undef9_1 ) ( * UndefCntr1_undef10 FV_undef10_1 ) ( * UndefCntr1_undef8 FV_undef8_1 ) ( * UndefCntr1_arg1 FV_arg1_1 ) ( * UndefCntr1_arg2 FV_arg2_1 ) ( * UndefCntr1_undef7 FV_undef7_1 ) ) 0 ) ) ) ) ))
(assert ( and ( >= lam18n0 0 ) ( >= lam18n1 0 ) ( >= lam18n2 0 ) ( > ( + ( * 1 lam18n0 ) ( * ( - 2 ) lam18n1 ) ( * Nl2CT1 lam18n2 ) ( - 1 ) ) 0 ) ( = ( + ( * ( - 1 ) lam18n0 ) ( * Nl2arg11 lam18n2 ) ) 0 ) ( = ( + ( * 1 lam18n1 ) ( * Nl2arg21 lam18n2 ) ) 0 ) ))
(assert ( and ( <= ( + Nl2CT1 ( * Nl2arg11 FV_arg1_3 ) ( * Nl2arg21 FV_arg2_3 ) ) 0 ) ( or ( and ( <= ( + 1 ( * ( - 1 ) FV_arg1_3 ) ) 0 ) ( <= ( + 1 ( * ( - 1 ) FV_arg1_3 ) FV_undef6_3 ) 0 ) ( <= ( + 1 ( * ( - 1 ) FV_arg2_3 ) FV_undef5_3 ) 0 ) ( <= ( + 1 ( * ( - 1 ) FV_undef5_3 ) ) 0 ) ( <= ( + ( * ( - 1 ) FV_arg1_3 ) FV_undef5_3 ) 0 ) ( <= ( * ( - 1 ) FV_undef6_3 ) 0 ) ( <= ( + 2 FV_undef6_3 ( * ( - 1 ) FV_arg2_3 ) ) 0 ) ( <= ( + 3 ( * ( - 1 ) FV_arg2_3 ) ) 0 ) ) ( and ( <= ( + 1 ( * ( - 1 ) FV_arg1_3 ) ) 0 ) ( <= ( + 1 ( * ( - 1 ) FV_undef7_3 ) ) 0 ) ( <= ( + 1 ( * ( - 1 ) FV_undef9_3 ) ) 0 ) ( <= ( + 1 ( * ( - 1 ) FV_undef10_3 ) ) 0 ) ( <= ( + ( * ( - 1 ) FV_arg1_3 ) FV_undef7_3 ) 0 ) ( <= ( * ( - 1 ) FV_undef8_3 ) 0 ) ( <= ( + 2 ( * ( - 1 ) FV_arg2_3 ) FV_undef7_3 ) 0 ) ( <= ( + 3 ( * ( - 1 ) FV_arg2_3 ) ) 0 ) ) ) ))
(check-sat)
(exit)
